decision_x1=[0,2];
decision_x2=[0,2];
decision_x3=[0,2];
decision_x4=[0,2];
decision_x5=[0,2];
decision_x6=[0,2];
decision_x7=[0,2];
decision_x8=[0,2];
decision_x9=[0,2];
decision_x10=[0,2];
random_y1=[0,2];
random_y2=[0,2];
constraint_x2_x1=[
0,0,6.9|
0,1,5.5|
0,2,5.6|
1,0,5.3|
1,1,2.6|
1,2,0.52|
2,0,8.1|
2,1,2.6|
2,2,9.7|
];
constraint_x3_x1=[
0,0,4|
0,1,6.7|
0,2,5.7|
1,0,9.5|
1,1,4|
1,2,1.3|
2,0,3.9|
2,1,8.4|
2,2,2.8|
];
constraint_x4_x1=[
0,0,2.1|
0,1,1.7|
0,2,0.79|
1,0,5.2|
1,1,7.3|
1,2,8.3|
2,0,0.6|
2,1,6.3|
2,2,4.9|
];
constraint_x4_x3=[
0,0,9.9|
0,1,3.9|
0,2,0.3|
1,0,6.4|
1,1,3.1|
1,2,1.5|
2,0,6.7|
2,1,4.4|
2,2,5.6|
];
constraint_x5_x2=[
0,0,4.2|
0,1,0.17|
0,2,9.1|
1,0,7|
1,1,0.57|
1,2,0.37|
2,0,4.6|
2,1,5.2|
2,2,4.9|
];
constraint_x5_x3=[
0,0,6.1|
0,1,1|
0,2,8.1|
1,0,8.8|
1,1,8.5|
1,2,9.8|
2,0,1.9|
2,1,7.7|
2,2,0.17|
];
constraint_x5_x4=[
0,0,0.73|
0,1,4.8|
0,2,4.5|
1,0,4.3|
1,1,7.7|
1,2,4.7|
2,0,5.2|
2,1,0.36|
2,2,3.8|
];
constraint_x6_x1=[
0,0,2.4|
0,1,0.21|
0,2,2.8|
1,0,8.8|
1,1,4.3|
1,2,6.5|
2,0,6.5|
2,1,4.7|
2,2,5|
];
constraint_x6_x2=[
0,0,6.6|
0,1,4|
0,2,5.3|
1,0,6.3|
1,1,5.2|
1,2,9.1|
2,0,8.4|
2,1,8.1|
2,2,3.6|
];
constraint_x7_x3=[
0,0,0.91|
0,1,2.5|
0,2,8|
1,0,3.2|
1,1,7.6|
1,2,1.2|
2,0,8.8|
2,1,8.6|
2,2,9.9|
];
constraint_x7_x4=[
0,0,2|
0,1,4|
0,2,4.9|
1,0,8.4|
1,1,2.4|
1,2,4.4|
2,0,0.49|
2,1,7.2|
2,2,3.1|
];
constraint_x7_x5=[
0,0,3.5|
0,1,5.6|
0,2,9.8|
1,0,8.5|
1,1,6.9|
1,2,6.5|
2,0,5|
2,1,2.1|
2,2,2.2|
];
constraint_x7_x6=[
0,0,9.8|
0,1,0.85|
0,2,5|
1,0,8.3|
1,1,3.7|
1,2,6.4|
2,0,7.4|
2,1,8.4|
2,2,3.8|
];
constraint_x8_x4=[
0,0,1.6|
0,1,9.2|
0,2,4.1|
1,0,8.8|
1,1,4.7|
1,2,6.8|
2,0,0.063|
2,1,8|
2,2,4.3|
];
constraint_x8_x7=[
0,0,5.8|
0,1,9.7|
0,2,2.2|
1,0,5.6|
1,1,9.7|
1,2,5.7|
2,0,3|
2,1,2.5|
2,2,3.4|
];
constraint_x9_x3=[
0,0,2.6|
0,1,1.8|
0,2,3.5|
1,0,2.7|
1,1,9.7|
1,2,4.7|
2,0,5.8|
2,1,9.5|
2,2,4.6|
];
constraint_x9_x6=[
0,0,0.13|
0,1,5.4|
0,2,3.3|
1,0,2.4|
1,1,5.2|
1,2,1.1|
2,0,8|
2,1,5.3|
2,2,8.6|
];
constraint_x9_x8=[
0,0,0.85|
0,1,2.9|
0,2,4.8|
1,0,1.5|
1,1,7.8|
1,2,7|
2,0,8.9|
2,1,9.8|
2,2,3.1|
];
constraint_x10_x1=[
0,0,5.9|
0,1,9|
0,2,0.65|
1,0,4.3|
1,1,0.64|
1,2,1.1|
2,0,5.5|
2,1,3.5|
2,2,7.7|
];
constraint_x10_x3=[
0,0,7.8|
0,1,4.7|
0,2,0.64|
1,0,1.4|
1,1,2.7|
1,2,8.1|
2,0,0.69|
2,1,5.9|
2,2,2.8|
];
constraint_x10_x5=[
0,0,9.9|
0,1,1.1|
0,2,5.1|
1,0,3.4|
1,1,9.6|
1,2,8.6|
2,0,5|
2,1,0.58|
2,2,6.6|
];
constraint_x10_x7=[
0,0,1.1|
0,1,4.4|
0,2,5.8|
1,0,6.1|
1,1,1.5|
1,2,10|
2,0,7.8|
2,1,8.5|
2,2,5.2|
];
constraint_x10_x9=[
0,0,2.4|
0,1,6.3|
0,2,5.9|
1,0,0.92|
1,1,6.2|
1,2,6.2|
2,0,6.6|
2,1,0.97|
2,2,3|
];
constraint_x1_y1=[
0,0,6.5|
0,1,3.3|
0,2,6.3|
1,0,0.39|
1,1,5.4|
1,2,4.9|
2,0,0.064|
2,1,5.5|
2,2,6.9|
];
constraint_x2_y2=[
0,0,1.2|
0,1,0.41|
0,2,2.9|
1,0,8.9|
1,1,8.6|
1,2,4.6|
2,0,3.9|
2,1,3.2|
2,2,2.1|
];
initial_distribution_y1=[0.23,0.46,0.31];
initial_distribution_y2=[0.14,0.25,0.61];
transition_y1=[
0.4,0.41,0.18|
0.25,0.26,0.49|
0.27,0.18,0.55|
];
transition_y2=[
0.46,0.52,0.017|
0.42,0.17,0.41|
0.32,0.36,0.32|
];
